NAME          BLANK   
ROWS
 N  OBJROW
 L  R0000000
COLUMNS
    C0000000  OBJROW     -432.         R0000000  156.        
    C0000001  OBJROW     -730.         R0000000  375.        
    C0000002  OBJROW     -865.         R0000000  82.         
    C0000003  OBJROW     -760.         R0000000  921.        
    C0000004  OBJROW     -495.         R0000000  323.        
    C0000005  OBJROW     -905.         R0000000  661.        
    C0000006  OBJROW     -688.         R0000000  334.        
    C0000007  OBJROW     -114.         R0000000  541.        
    C0000008  OBJROW     -239.         R0000000  878.        
    C0000009  OBJROW     -641.         R0000000  397.        
    C0000010  OBJROW     -193.         R0000000  589.        
    C0000011  OBJROW     -817.         R0000000  563.        
    C0000012  OBJROW     -481.         R0000000  264.        
    C0000013  OBJROW     -458.         R0000000  297.        
    C0000014  OBJROW     -913.         R0000000  162.        
    C0000015  OBJROW     -285.         R0000000  857.        
    C0000016  OBJROW     -269.         R0000000  108.        
    C0000017  OBJROW     -764.         R0000000  782.        
    C0000018  OBJROW     -517.         R0000000  924.        
RHS
    RHS       R0000000  14156.      
BOUNDS
 BV BOUND     C0000000  1.          
 BV BOUND     C0000001  1.          
 BV BOUND     C0000002  1.          
 BV BOUND     C0000003  1.          
 BV BOUND     C0000004  1.          
 BV BOUND     C0000005  1.          
 BV BOUND     C0000006  1.          
 BV BOUND     C0000007  1.          
 BV BOUND     C0000008  1.          
 BV BOUND     C0000009  1.          
 BV BOUND     C0000010  1.          
 BV BOUND     C0000011  1.          
 BV BOUND     C0000012  1.          
 BV BOUND     C0000013  1.          
 BV BOUND     C0000014  1.          
 BV BOUND     C0000015  1.          
 BV BOUND     C0000016  1.          
 BV BOUND     C0000017  1.          
 BV BOUND     C0000018  1.          
ENDATA
